samf/hales/sun/fake1b.in
32
0.0002

