samf/hales/sun/fake1b.out
Welcome to sphere packing routines, relation testing division.
Welcome to Fake anchor 1b
Enter depth bound:  Enter slop:  Depth bound = 32
slop = 0.0002
Starting time:  	Thu Jun  4 11:43:26 1998

Starting case 1:
2.509999999999999786	2.569999999999999840
2.000000000000000000	2.510000000000000230
2.000000000000000000	2.510000000000000230
cellcount    =       1289098825		maxdepth = 14
partialtries =        262317422
impossible   =                0		domaincut    =                0
acutecut     =                0		verifycount  =       1073889948
partialcount =         54066567		diff         =        161142310
Verification succeeded.

Done.
Ending time:    	Sat Jun  6 08:13:09 1998

Elapsed time: 160183 seconds
diff = 1529.54		8047.66 cells per second


